p cnf 324 1
324 0
w 1 0.858799
w 2 1 1
w 2 -1 0
w 3 2 1
w 3 -2 0
w 4 3 0
w 4 -3 1
w 5 4 0.359066
w 5 -4 0.871876
w 6 5 0.628706
w 6 -5 0.884594
w 7 6 0.297741
w 7 -6 0.189496
w 8 7 0.458581
w 8 -7 0.648068
w 9 8 0
w 9 -8 1
w 10 9 0.660744
w 10 -9 0.944071
w 11 10 0.562796
w 11 -10 0.428067
w 12 11 1
w 12 -11 0
w 13 12 0
w 13 -12 1
w 14 13 1
w 14 -13 0
w 15 14 0
w 15 -14 1
w 16 15 1
w 16 -15 0
w 17 16 1
w 17 -16 0
w 18 17 0.302773
w 18 -17 0.671136
w 19 1 1
w 19 -1 0
w 20 19 2 0
w 20 19 -2 0
w 20 -19 2 1
w 20 -19 -2 0
w 21 20 3 0
w 21 20 -3 1
w 21 -20 3 0
w 21 -20 -3 0
w 22 21 4 0.687484
w 22 21 -4 0.88988
w 22 -21 4 0.96282
w 22 -21 -4 0.234698
w 23 22 5 0.83994
w 23 22 -5 0.640711
w 23 -22 5 0.346566
w 23 -22 -5 0.930902
w 24 23 6 1
w 24 23 -6 0
w 24 -23 6 0
w 24 -23 -6 0
w 25 24 7 0.126445
w 25 24 -7 0.654846
w 25 -24 7 0.0932208
w 25 -24 -7 0.313812
w 26 25 8 0.650561
w 26 25 -8 0.690674
w 26 -25 8 0.983394
w 26 -25 -8 0.666483
w 27 26 9 0.447339
w 27 26 -9 0.184224
w 27 -26 9 0.690552
w 27 -26 -9 0.572027
w 28 27 10 0.205927
w 28 27 -10 0.259511
w 28 -27 10 0.535916
w 28 -27 -10 0.168747
w 29 28 11 0
w 29 28 -11 0
w 29 -28 11 1
w 29 -28 -11 0
w 30 29 12 0.527697
w 30 29 -12 0.677907
w 30 -29 12 0.142317
w 30 -29 -12 0.35137
w 31 30 13 0.975939
w 31 30 -13 0.477815
w 31 -30 13 0.316463
w 31 -30 -13 0.06916
w 32 31 14 0.149794
w 32 31 -14 0.719721
w 32 -31 14 0.482301
w 32 -31 -14 0.133189
w 33 32 15 0
w 33 32 -15 0
w 33 -32 15 1
w 33 -32 -15 0
w 34 33 16 0
w 34 33 -16 0
w 34 -33 16 1
w 34 -33 -16 1
w 35 34 17 1
w 35 34 -17 1
w 35 -34 17 1
w 35 -34 -17 0
w 36 35 18 0
w 36 35 -18 0
w 36 -35 18 0
w 36 -35 -18 1
w 37 19 0.413614
w 37 -19 0.329663
w 38 37 20 1
w 38 37 -20 1
w 38 -37 20 0
w 38 -37 -20 1
w 39 38 21 1
w 39 38 -21 0
w 39 -38 21 0
w 39 -38 -21 1
w 40 39 22 0.0751759
w 40 39 -22 0.758371
w 40 -39 22 0.746142
w 40 -39 -22 0.291639
w 41 40 23 0.158209
w 41 40 -23 0.0440182
w 41 -40 23 0.115888
w 41 -40 -23 0.0644844
w 42 41 24 0
w 42 41 -24 1
w 42 -41 24 1
w 42 -41 -24 0
w 43 42 25 0.110056
w 43 42 -25 0.952837
w 43 -42 25 0.594839
w 43 -42 -25 0.523671
w 44 43 26 0
w 44 43 -26 0
w 44 -43 26 1
w 44 -43 -26 1
w 45 44 27 1
w 45 44 -27 0
w 45 -44 27 0
w 45 -44 -27 0
w 46 45 28 0.740267
w 46 45 -28 0.379793
w 46 -45 28 0.482911
w 46 -45 -28 0.48641
w 47 46 29 0.335667
w 47 46 -29 0.644618
w 47 -46 29 0.71545
w 47 -46 -29 0.451554
w 48 47 30 0.99942
w 48 47 -30 0.839261
w 48 -47 30 0.814784
w 48 -47 -30 0.357479
w 49 48 31 0
w 49 48 -31 0
w 49 -48 31 1
w 49 -48 -31 1
w 50 49 32 0.673711
w 50 49 -32 0.0771157
w 50 -49 32 0.244953
w 50 -49 -32 0.355035
w 51 50 33 1
w 51 50 -33 1
w 51 -50 33 1
w 51 -50 -33 0
w 52 51 34 0.26552
w 52 51 -34 0.839313
w 52 -51 34 0.321818
w 52 -51 -34 0.751929
w 53 52 35 0.657484
w 53 52 -35 0.396548
w 53 -52 35 0.226196
w 53 -52 -35 0.109039
w 54 53 36 1
w 54 53 -36 1
w 54 -53 36 0
w 54 -53 -36 0
w 55 37 0
w 55 -37 1
w 56 55 38 1
w 56 55 -38 1
w 56 -55 38 0
w 56 -55 -38 0
w 57 56 39 0.286788
w 57 56 -39 0.80663
w 57 -56 39 0.830845
w 57 -56 -39 0.665361
w 58 57 40 0.945212
w 58 57 -40 0.190613
w 58 -57 40 0.421054
w 58 -57 -40 0.784119
w 59 58 41 0
w 59 58 -41 0
w 59 -58 41 0
w 59 -58 -41 1
w 60 59 42 0.60461
w 60 59 -42 0.997309
w 60 -59 42 0.87246
w 60 -59 -42 0.71026
w 61 60 43 1
w 61 60 -43 0
w 61 -60 43 0
w 61 -60 -43 1
w 62 61 44 1
w 62 61 -44 1
w 62 -61 44 1
w 62 -61 -44 0
w 63 62 45 1
w 63 62 -45 0
w 63 -62 45 1
w 63 -62 -45 0
w 64 63 46 1
w 64 63 -46 1
w 64 -63 46 1
w 64 -63 -46 0
w 65 64 47 0
w 65 64 -47 0
w 65 -64 47 1
w 65 -64 -47 1
w 66 65 48 0.31005
w 66 65 -48 0.654919
w 66 -65 48 0.407579
w 66 -65 -48 0.02031
w 67 66 49 0.228339
w 67 66 -49 0.651004
w 67 -66 49 0.683863
w 67 -66 -49 0.435771
w 68 67 50 0.540511
w 68 67 -50 0.421087
w 68 -67 50 0.22597
w 68 -67 -50 0.438995
w 69 68 51 0.331555
w 69 68 -51 0.624266
w 69 -68 51 0.10154
w 69 -68 -51 0.267986
w 70 69 52 1
w 70 69 -52 0
w 70 -69 52 1
w 70 -69 -52 1
w 71 70 53 0.0135217
w 71 70 -53 0.819241
w 71 -70 53 0.587089
w 71 -70 -53 0.718962
w 72 71 54 0
w 72 71 -54 0
w 72 -71 54 1
w 72 -71 -54 1
w 73 55 1
w 73 -55 0
w 74 73 56 0.700326
w 74 73 -56 0.693477
w 74 -73 56 0.193897
w 74 -73 -56 0.391817
w 75 74 57 1
w 75 74 -57 0
w 75 -74 57 0
w 75 -74 -57 1
w 76 75 58 0.297249
w 76 75 -58 0.574523
w 76 -75 58 0.217328
w 76 -75 -58 0.772147
w 77 76 59 0.366957
w 77 76 -59 0.288291
w 77 -76 59 0.813882
w 77 -76 -59 0.182348
w 78 77 60 0
w 78 77 -60 0
w 78 -77 60 0
w 78 -77 -60 1
w 79 78 61 1
w 79 78 -61 0
w 79 -78 61 1
w 79 -78 -61 0
w 80 79 62 0
w 80 79 -62 1
w 80 -79 62 0
w 80 -79 -62 1
w 81 80 63 1
w 81 80 -63 1
w 81 -80 63 1
w 81 -80 -63 0
w 82 81 64 0.149056
w 82 81 -64 0.0359454
w 82 -81 64 0.97571
w 82 -81 -64 0.921203
w 83 82 65 0.342667
w 83 82 -65 0.209494
w 83 -82 65 0.730965
w 83 -82 -65 0.525015
w 84 83 66 0.364088
w 84 83 -66 0.294451
w 84 -83 66 0.532081
w 84 -83 -66 0.474061
w 85 84 67 1
w 85 84 -67 1
w 85 -84 67 1
w 85 -84 -67 0
w 86 85 68 0.787084
w 86 85 -68 0.480411
w 86 -85 68 0.911998
w 86 -85 -68 0.160539
w 87 86 69 0.0908213
w 87 86 -69 0.148978
w 87 -86 69 0.480702
w 87 -86 -69 0.942628
w 88 87 70 0.239084
w 88 87 -70 0.0916838
w 88 -87 70 0.646346
w 88 -87 -70 0.214794
w 89 88 71 0
w 89 88 -71 1
w 89 -88 71 0
w 89 -88 -71 0
w 90 89 72 0
w 90 89 -72 0
w 90 -89 72 0
w 90 -89 -72 1
w 91 73 1
w 91 -73 0
w 92 91 74 0.848348
w 92 91 -74 0.170548
w 92 -91 74 0.528612
w 92 -91 -74 0.815511
w 93 92 75 0.00902262
w 93 92 -75 0.727508
w 93 -92 75 0.118172
w 93 -92 -75 0.680686
w 94 93 76 0.26715
w 94 93 -76 0.161388
w 94 -93 76 0.760958
w 94 -93 -76 0.87755
w 95 94 77 1
w 95 94 -77 1
w 95 -94 77 0
w 95 -94 -77 1
w 96 95 78 0
w 96 95 -78 0
w 96 -95 78 1
w 96 -95 -78 1
w 97 96 79 0.0402009
w 97 96 -79 0.632128
w 97 -96 79 0.0873641
w 97 -96 -79 0.172744
w 98 97 80 0
w 98 97 -80 1
w 98 -97 80 0
w 98 -97 -80 1
w 99 98 81 0.323331
w 99 98 -81 0.472634
w 99 -98 81 0.56411
w 99 -98 -81 0.441503
w 100 99 82 1
w 100 99 -82 0
w 100 -99 82 0
w 100 -99 -82 0
w 101 100 83 0.715179
w 101 100 -83 0.996039
w 101 -100 83 0.110099
w 101 -100 -83 0.330445
w 102 101 84 0.197424
w 102 101 -84 0.503171
w 102 -101 84 0.949477
w 102 -101 -84 0.579144
w 103 102 85 0.771073
w 103 102 -85 0.619344
w 103 -102 85 0.390501
w 103 -102 -85 0.858437
w 104 103 86 0.585652
w 104 103 -86 0.793436
w 104 -103 86 0.813179
w 104 -103 -86 0.95135
w 105 104 87 0
w 105 104 -87 1
w 105 -104 87 1
w 105 -104 -87 1
w 106 105 88 0.883001
w 106 105 -88 0.596332
w 106 -105 88 0.424837
w 106 -105 -88 0.197708
w 107 106 89 0.0110401
w 107 106 -89 0.912888
w 107 -106 89 0.735769
w 107 -106 -89 0.121139
w 108 107 90 1
w 108 107 -90 1
w 108 -107 90 1
w 108 -107 -90 0
w 109 91 0.504876
w 109 -91 0.317885
w 110 109 92 0.895377
w 110 109 -92 0.176322
w 110 -109 92 0.30914
w 110 -109 -92 0.481029
w 111 110 93 0.122319
w 111 110 -93 0.432379
w 111 -110 93 0.226806
w 111 -110 -93 0.7721
w 112 111 94 0.956487
w 112 111 -94 0.985992
w 112 -111 94 0.423246
w 112 -111 -94 0.839488
w 113 112 95 0.848083
w 113 112 -95 0.0371968
w 113 -112 95 0.322053
w 113 -112 -95 0.859123
w 114 113 96 0.0578216
w 114 113 -96 0.980262
w 114 -113 96 0.193417
w 114 -113 -96 0.655158
w 115 114 97 1
w 115 114 -97 0
w 115 -114 97 0
w 115 -114 -97 0
w 116 115 98 0.713584
w 116 115 -98 0.340174
w 116 -115 98 0.696177
w 116 -115 -98 0.022724
w 117 116 99 0.665936
w 117 116 -99 0.145043
w 117 -116 99 0.253582
w 117 -116 -99 0.892742
w 118 117 100 0.960643
w 118 117 -100 0.849229
w 118 -117 100 0.903135
w 118 -117 -100 0.383889
w 119 118 101 0.485459
w 119 118 -101 0.231972
w 119 -118 101 0.725914
w 119 -118 -101 0.807512
w 120 119 102 0
w 120 119 -102 0
w 120 -119 102 0
w 120 -119 -102 1
w 121 120 103 0.370183
w 121 120 -103 0.809336
w 121 -120 103 0.722462
w 121 -120 -103 0.566716
w 122 121 104 1
w 122 121 -104 1
w 122 -121 104 0
w 122 -121 -104 0
w 123 122 105 1
w 123 122 -105 1
w 123 -122 105 0
w 123 -122 -105 0
w 124 123 106 0
w 124 123 -106 1
w 124 -123 106 0
w 124 -123 -106 0
w 125 124 107 0
w 125 124 -107 1
w 125 -124 107 1
w 125 -124 -107 1
w 126 125 108 0.33669
w 126 125 -108 0.437032
w 126 -125 108 0.426651
w 126 -125 -108 0.408047
w 127 109 0
w 127 -109 1
w 128 127 110 0.115783
w 128 127 -110 0.669604
w 128 -127 110 0.344945
w 128 -127 -110 0.369916
w 129 128 111 0.625245
w 129 128 -111 0.964223
w 129 -128 111 0.850415
w 129 -128 -111 0.928269
w 130 129 112 1
w 130 129 -112 0
w 130 -129 112 1
w 130 -129 -112 0
w 131 130 113 0.678558
w 131 130 -113 0.298419
w 131 -130 113 0.00989282
w 131 -130 -113 0.692182
w 132 131 114 0
w 132 131 -114 1
w 132 -131 114 0
w 132 -131 -114 1
w 133 132 115 1
w 133 132 -115 0
w 133 -132 115 0
w 133 -132 -115 0
w 134 133 116 0.460743
w 134 133 -116 0.953833
w 134 -133 116 0.368411
w 134 -133 -116 0.805688
w 135 134 117 0
w 135 134 -117 1
w 135 -134 117 1
w 135 -134 -117 0
w 136 135 118 0
w 136 135 -118 1
w 136 -135 118 1
w 136 -135 -118 1
w 137 136 119 0.477086
w 137 136 -119 0.395085
w 137 -136 119 0.836029
w 137 -136 -119 0.486979
w 138 137 120 0
w 138 137 -120 0
w 138 -137 120 1
w 138 -137 -120 0
w 139 138 121 0.29951
w 139 138 -121 0.79574
w 139 -138 121 0.327357
w 139 -138 -121 0.982023
w 140 139 122 0.0261639
w 140 139 -122 0.442766
w 140 -139 122 0.587623
w 140 -139 -122 0.394575
w 141 140 123 1
w 141 140 -123 0
w 141 -140 123 1
w 141 -140 -123 0
w 142 141 124 0.0385899
w 142 141 -124 0.867048
w 142 -141 124 0.391246
w 142 -141 -124 0.774129
w 143 142 125 0.928856
w 143 142 -125 0.251215
w 143 -142 125 0.97866
w 143 -142 -125 0.764885
w 144 143 126 0.0659273
w 144 143 -126 0.934452
w 144 -143 126 0.988871
w 144 -143 -126 0.0909709
w 145 127 1
w 145 -127 0
w 146 145 128 0
w 146 145 -128 0
w 146 -145 128 1
w 146 -145 -128 1
w 147 146 129 0.81527
w 147 146 -129 0.215743
w 147 -146 129 0.312657
w 147 -146 -129 0.0637242
w 148 147 130 1
w 148 147 -130 0
w 148 -147 130 1
w 148 -147 -130 0
w 149 148 131 0.193507
w 149 148 -131 0.184462
w 149 -148 131 0.55583
w 149 -148 -131 0.777082
w 150 149 132 1
w 150 149 -132 1
w 150 -149 132 1
w 150 -149 -132 0
w 151 150 133 0.812655
w 151 150 -133 0.53411
w 151 -150 133 0.912641
w 151 -150 -133 0.0112449
w 152 151 134 1
w 152 151 -134 0
w 152 -151 134 1
w 152 -151 -134 1
w 153 152 135 0.908673
w 153 152 -135 0.490896
w 153 -152 135 0.849438
w 153 -152 -135 0.22133
w 154 153 136 0.976554
w 154 153 -136 0.208894
w 154 -153 136 0.297732
w 154 -153 -136 0.303013
w 155 154 137 1
w 155 154 -137 1
w 155 -154 137 0
w 155 -154 -137 0
w 156 155 138 0
w 156 155 -138 1
w 156 -155 138 0
w 156 -155 -138 1
w 157 156 139 0.851015
w 157 156 -139 0.99075
w 157 -156 139 0.521659
w 157 -156 -139 0.763655
w 158 157 140 1
w 158 157 -140 1
w 158 -157 140 1
w 158 -157 -140 0
w 159 158 141 0.641265
w 159 158 -141 0.519595
w 159 -158 141 0.233299
w 159 -158 -141 0.490703
w 160 159 142 0.787919
w 160 159 -142 0.467257
w 160 -159 142 0.94982
w 160 -159 -142 0.085651
w 161 160 143 0.951931
w 161 160 -143 0.165084
w 161 -160 143 0.26679
w 161 -160 -143 0.138504
w 162 161 144 0.540392
w 162 161 -144 0.438396
w 162 -161 144 0.242657
w 162 -161 -144 0.569737
w 163 145 0.230206
w 163 -145 0.420752
w 164 163 146 0.751865
w 164 163 -146 0.184407
w 164 -163 146 0.609234
w 164 -163 -146 0.372197
w 165 164 147 1
w 165 164 -147 0
w 165 -164 147 1
w 165 -164 -147 1
w 166 165 148 0.226885
w 166 165 -148 0.748772
w 166 -165 148 0.24364
w 166 -165 -148 0.0148044
w 167 166 149 0
w 167 166 -149 0
w 167 -166 149 0
w 167 -166 -149 1
w 168 167 150 0
w 168 167 -150 0
w 168 -167 150 1
w 168 -167 -150 0
w 169 168 151 0.308545
w 169 168 -151 0.363218
w 169 -168 151 0.33878
w 169 -168 -151 0.538751
w 170 169 152 0.946019
w 170 169 -152 0.290616
w 170 -169 152 0.968376
w 170 -169 -152 0.555254
w 171 170 153 0.21956
w 171 170 -153 0.172058
w 171 -170 153 0.645932
w 171 -170 -153 0.213146
w 172 171 154 1
w 172 171 -154 1
w 172 -171 154 1
w 172 -171 -154 0
w 173 172 155 0
w 173 172 -155 0
w 173 -172 155 1
w 173 -172 -155 0
w 174 173 156 0.820831
w 174 173 -156 0.634313
w 174 -173 156 0.0150293
w 174 -173 -156 0.886719
w 175 174 157 0
w 175 174 -157 1
w 175 -174 157 0
w 175 -174 -157 1
w 176 175 158 0.574981
w 176 175 -158 0.0221182
w 176 -175 158 0.0246313
w 176 -175 -158 0.543357
w 177 176 159 0.687444
w 177 176 -159 0.762917
w 177 -176 159 0.749429
w 177 -176 -159 0.333376
w 178 177 160 0.179556
w 178 177 -160 0.482022
w 178 -177 160 0.416095
w 178 -177 -160 0.358453
w 179 178 161 0.870931
w 179 178 -161 0.75338
w 179 -178 161 0.460053
w 179 -178 -161 0.426223
w 180 179 162 1
w 180 179 -162 0
w 180 -179 162 0
w 180 -179 -162 0
w 181 163 0
w 181 -163 1
w 182 181 164 1
w 182 181 -164 0
w 182 -181 164 0
w 182 -181 -164 1
w 183 182 165 0
w 183 182 -165 0
w 183 -182 165 1
w 183 -182 -165 1
w 184 183 166 0.368555
w 184 183 -166 0.108503
w 184 -183 166 0.845042
w 184 -183 -166 0.548111
w 185 184 167 0.261137
w 185 184 -167 0.906564
w 185 -184 167 0.464834
w 185 -184 -167 0.132068
w 186 185 168 0.924887
w 186 185 -168 0.558291
w 186 -185 168 0.794548
w 186 -185 -168 0.116076
w 187 186 169 0.563465
w 187 186 -169 0.322293
w 187 -186 169 0.939117
w 187 -186 -169 0.760176
w 188 187 170 0
w 188 187 -170 0
w 188 -187 170 1
w 188 -187 -170 0
w 189 188 171 1
w 189 188 -171 1
w 189 -188 171 0
w 189 -188 -171 1
w 190 189 172 1
w 190 189 -172 0
w 190 -189 172 0
w 190 -189 -172 0
w 191 190 173 0.391821
w 191 190 -173 0.769575
w 191 -190 173 0.357878
w 191 -190 -173 0.523889
w 192 191 174 1
w 192 191 -174 0
w 192 -191 174 1
w 192 -191 -174 0
w 193 192 175 0.787532
w 193 192 -175 0.721134
w 193 -192 175 0.826642
w 193 -192 -175 0.547708
w 194 193 176 0.0947954
w 194 193 -176 0.295607
w 194 -193 176 0.27243
w 194 -193 -176 0.426001
w 195 194 177 0.599649
w 195 194 -177 0.844889
w 195 -194 177 0.0228725
w 195 -194 -177 0.545994
w 196 195 178 0
w 196 195 -178 0
w 196 -195 178 1
w 196 -195 -178 0
w 197 196 179 1
w 197 196 -179 1
w 197 -196 179 0
w 197 -196 -179 1
w 198 197 180 0.875109
w 198 197 -180 0.437086
w 198 -197 180 0.147066
w 198 -197 -180 0.273949
w 199 181 0
w 199 -181 1
w 200 199 182 0.151252
w 200 199 -182 0.482306
w 200 -199 182 0.982047
w 200 -199 -182 0.246048
w 201 200 183 0.254476
w 201 200 -183 0.672048
w 201 -200 183 0.384121
w 201 -200 -183 0.854125
w 202 201 184 0.406994
w 202 201 -184 0.40012
w 202 -201 184 0.555841
w 202 -201 -184 0.715508
w 203 202 185 0
w 203 202 -185 0
w 203 -202 185 0
w 203 -202 -185 1
w 204 203 186 0.478401
w 204 203 -186 0.724072
w 204 -203 186 0.340631
w 204 -203 -186 0.401401
w 205 204 187 0.777718
w 205 204 -187 0.548468
w 205 -204 187 0.87313
w 205 -204 -187 0.102328
w 206 205 188 0
w 206 205 -188 0
w 206 -205 188 1
w 206 -205 -188 0
w 207 206 189 1
w 207 206 -189 0
w 207 -206 189 0
w 207 -206 -189 0
w 208 207 190 0.688613
w 208 207 -190 0.5344
w 208 -207 190 0.35898
w 208 -207 -190 0.244453
w 209 208 191 0
w 209 208 -191 0
w 209 -208 191 0
w 209 -208 -191 1
w 210 209 192 1
w 210 209 -192 1
w 210 -209 192 0
w 210 -209 -192 1
w 211 210 193 0.508687
w 211 210 -193 0.0331854
w 211 -210 193 0.469827
w 211 -210 -193 0.611015
w 212 211 194 0.338039
w 212 211 -194 0.864596
w 212 -211 194 0.481623
w 212 -211 -194 0.188298
w 213 212 195 1
w 213 212 -195 0
w 213 -212 195 0
w 213 -212 -195 1
w 214 213 196 1
w 214 213 -196 1
w 214 -213 196 0
w 214 -213 -196 1
w 215 214 197 0
w 215 214 -197 0
w 215 -214 197 1
w 215 -214 -197 0
w 216 215 198 0.931573
w 216 215 -198 0.9191
w 216 -215 198 0.881643
w 216 -215 -198 0.662542
w 217 199 1
w 217 -199 0
w 218 217 200 0
w 218 217 -200 1
w 218 -217 200 1
w 218 -217 -200 1
w 219 218 201 1
w 219 218 -201 1
w 219 -218 201 1
w 219 -218 -201 0
w 220 219 202 0.546964
w 220 219 -202 0.0120981
w 220 -219 202 0.0194309
w 220 -219 -202 0.771476
w 221 220 203 0.630305
w 221 220 -203 0.240442
w 221 -220 203 0.0354318
w 221 -220 -203 0.861173
w 222 221 204 0.576667
w 222 221 -204 0.696957
w 222 -221 204 0.73525
w 222 -221 -204 0.508239
w 223 222 205 0.616893
w 223 222 -205 0.170782
w 223 -222 205 0.0198747
w 223 -222 -205 0.0952325
w 224 223 206 1
w 224 223 -206 0
w 224 -223 206 1
w 224 -223 -206 1
w 225 224 207 1
w 225 224 -207 0
w 225 -224 207 0
w 225 -224 -207 0
w 226 225 208 0.571646
w 226 225 -208 0.329124
w 226 -225 208 0.516893
w 226 -225 -208 0.591077
w 227 226 209 0
w 227 226 -209 1
w 227 -226 209 0
w 227 -226 -209 1
w 228 227 210 0
w 228 227 -210 0
w 228 -227 210 1
w 228 -227 -210 0
w 229 228 211 0.395569
w 229 228 -211 0.544309
w 229 -228 211 0.706824
w 229 -228 -211 0.415443
w 230 229 212 0.0488348
w 230 229 -212 0.872321
w 230 -229 212 0.682941
w 230 -229 -212 0.173091
w 231 230 213 0
w 231 230 -213 1
w 231 -230 213 0
w 231 -230 -213 0
w 232 231 214 0.632259
w 232 231 -214 0.388301
w 232 -231 214 0.0554719
w 232 -231 -214 0.149152
w 233 232 215 0.156072
w 233 232 -215 0.564856
w 233 -232 215 0.20076
w 233 -232 -215 0.497114
w 234 233 216 0
w 234 233 -216 1
w 234 -233 216 1
w 234 -233 -216 1
w 235 217 0.579836
w 235 -217 0.458396
w 236 235 218 0
w 236 235 -218 1
w 236 -235 218 0
w 236 -235 -218 0
w 237 236 219 0
w 237 236 -219 0
w 237 -236 219 1
w 237 -236 -219 1
w 238 237 220 1
w 238 237 -220 1
w 238 -237 220 0
w 238 -237 -220 0
w 239 238 221 1
w 239 238 -221 0
w 239 -238 221 0
w 239 -238 -221 1
w 240 239 222 0.887779
w 240 239 -222 0.518337
w 240 -239 222 0.164442
w 240 -239 -222 0.577059
w 241 240 223 0.227269
w 241 240 -223 0.193756
w 241 -240 223 0.141968
w 241 -240 -223 0.685665
w 242 241 224 1
w 242 241 -224 1
w 242 -241 224 0
w 242 -241 -224 0
w 243 242 225 1
w 243 242 -225 0
w 243 -242 225 1
w 243 -242 -225 0
w 244 243 226 0.490358
w 244 243 -226 0.447517
w 244 -243 226 0.904602
w 244 -243 -226 0.278695
w 245 244 227 1
w 245 244 -227 1
w 245 -244 227 0
w 245 -244 -227 0
w 246 245 228 0.71
w 246 245 -228 0.417638
w 246 -245 228 0.236867
w 246 -245 -228 0.874442
w 247 246 229 0.798998
w 247 246 -229 0.101711
w 247 -246 229 0.188453
w 247 -246 -229 0.940966
w 248 247 230 0.543215
w 248 247 -230 0.369593
w 248 -247 230 0.34688
w 248 -247 -230 0.698524
w 249 248 231 0
w 249 248 -231 1
w 249 -248 231 1
w 249 -248 -231 1
w 250 249 232 1
w 250 249 -232 1
w 250 -249 232 0
w 250 -249 -232 0
w 251 250 233 0.0681727
w 251 250 -233 0.175701
w 251 -250 233 0.972063
w 251 -250 -233 0.897045
w 252 251 234 0.690592
w 252 251 -234 0.607045
w 252 -251 234 0.123198
w 252 -251 -234 0.927459
w 253 235 1
w 253 -235 0
w 254 253 236 0.583198
w 254 253 -236 0.306348
w 254 -253 236 0.667423
w 254 -253 -236 0.370573
w 255 254 237 0.0370164
w 255 254 -237 0.717453
w 255 -254 237 0.548087
w 255 -254 -237 0.170732
w 256 255 238 0
w 256 255 -238 0
w 256 -255 238 1
w 256 -255 -238 1
w 257 256 239 0.834006
w 257 256 -239 0.277223
w 257 -256 239 0.745568
w 257 -256 -239 0.589884
w 258 257 240 0
w 258 257 -240 0
w 258 -257 240 1
w 258 -257 -240 0
w 259 258 241 0.750026
w 259 258 -241 0.179998
w 259 -258 241 0.330973
w 259 -258 -241 0.867921
w 260 259 242 0.91417
w 260 259 -242 0.17427
w 260 -259 242 0.573878
w 260 -259 -242 0.284744
w 261 260 243 1
w 261 260 -243 1
w 261 -260 243 0
w 261 -260 -243 0
w 262 261 244 1
w 262 261 -244 0
w 262 -261 244 1
w 262 -261 -244 0
w 263 262 245 1
w 263 262 -245 0
w 263 -262 245 0
w 263 -262 -245 0
w 264 263 246 0
w 264 263 -246 1
w 264 -263 246 1
w 264 -263 -246 0
w 265 264 247 0.529429
w 265 264 -247 0.111534
w 265 -264 247 0.147392
w 265 -264 -247 0.860402
w 266 265 248 0.0538472
w 266 265 -248 0.774572
w 266 -265 248 0.153725
w 266 -265 -248 0.627726
w 267 266 249 1
w 267 266 -249 0
w 267 -266 249 1
w 267 -266 -249 0
w 268 267 250 0
w 268 267 -250 1
w 268 -267 250 0
w 268 -267 -250 1
w 269 268 251 1
w 269 268 -251 0
w 269 -268 251 1
w 269 -268 -251 1
w 270 269 252 0.994966
w 270 269 -252 0.593511
w 270 -269 252 0.231239
w 270 -269 -252 0.356474
w 271 253 0.760667
w 271 -253 0.468009
w 272 271 254 0.621069
w 272 271 -254 0.447464
w 272 -271 254 0.762144
w 272 -271 -254 0.395641
w 273 272 255 0.389869
w 273 272 -255 0.454957
w 273 -272 255 0.778748
w 273 -272 -255 0.62849
w 274 273 256 0.528227
w 274 273 -256 0.648737
w 274 -273 256 0.950177
w 274 -273 -256 0.735032
w 275 274 257 0
w 275 274 -257 1
w 275 -274 257 1
w 275 -274 -257 1
w 276 275 258 0.734929
w 276 275 -258 0.71731
w 276 -275 258 0.421812
w 276 -275 -258 0.729895
w 277 276 259 1
w 277 276 -259 1
w 277 -276 259 1
w 277 -276 -259 0
w 278 277 260 0.580022
w 278 277 -260 0.0347869
w 278 -277 260 0.00184269
w 278 -277 -260 0.342166
w 279 278 261 0
w 279 278 -261 0
w 279 -278 261 0
w 279 -278 -261 1
w 280 279 262 1
w 280 279 -262 1
w 280 -279 262 1
w 280 -279 -262 0
w 281 280 263 0.0370307
w 281 280 -263 0.464935
w 281 -280 263 0.401761
w 281 -280 -263 0.511673
w 282 281 264 0
w 282 281 -264 1
w 282 -281 264 1
w 282 -281 -264 1
w 283 282 265 0.331719
w 283 282 -265 0.347139
w 283 -282 265 0.0628665
w 283 -282 -265 0.203444
w 284 283 266 0.617245
w 284 283 -266 0.783467
w 284 -283 266 0.795644
w 284 -283 -266 0.619087
w 285 284 267 1
w 285 284 -267 1
w 285 -284 267 0
w 285 -284 -267 1
w 286 285 268 0
w 286 285 -268 1
w 286 -285 268 1
w 286 -285 -268 0
w 287 286 269 0
w 287 286 -269 1
w 287 -286 269 0
w 287 -286 -269 1
w 288 287 270 0.832987
w 288 287 -270 0.0227627
w 288 -287 270 0.654763
w 288 -287 -270 0.527076
w 289 271 0.986482
w 289 -271 0.874215
w 290 289 272 0
w 290 289 -272 0
w 290 -289 272 1
w 290 -289 -272 0
w 291 290 273 1
w 291 290 -273 1
w 291 -290 273 1
w 291 -290 -273 0
w 292 291 274 0.124479
w 292 291 -274 0.174889
w 292 -291 274 0.281557
w 292 -291 -274 0.638388
w 293 292 275 1
w 293 292 -275 1
w 293 -292 275 0
w 293 -292 -275 0
w 294 293 276 1
w 294 293 -276 1
w 294 -293 276 1
w 294 -293 -276 0
w 295 294 277 0.718109
w 295 294 -277 0.465016
w 295 -294 277 0.75229
w 295 -294 -277 0.592324
w 296 295 278 0.942216
w 296 295 -278 0.227397
w 296 -295 278 0.206513
w 296 -295 -278 0.91561
w 297 296 279 0.504972
w 297 296 -279 0.0146361
w 297 -296 279 0.314902
w 297 -296 -279 0.0255505
w 298 297 280 0.0831469
w 298 297 -280 0.15003
w 298 -297 280 0.14622
w 298 -297 -280 0.364704
w 299 298 281 0.548565
w 299 298 -281 0.511603
w 299 -298 281 0.585755
w 299 -298 -281 0.215398
w 300 299 282 0.943801
w 300 299 -282 0.658391
w 300 -299 282 0.0998257
w 300 -299 -282 0.134835
w 301 300 283 0
w 301 300 -283 0
w 301 -300 283 1
w 301 -300 -283 0
w 302 301 284 1
w 302 301 -284 0
w 302 -301 284 1
w 302 -301 -284 1
w 303 302 285 0
w 303 302 -285 1
w 303 -302 285 0
w 303 -302 -285 1
w 304 303 286 0.461716
w 304 303 -286 0.728827
w 304 -303 286 0.0033709
w 304 -303 -286 0.607936
w 305 304 287 1
w 305 304 -287 1
w 305 -304 287 0
w 305 -304 -287 1
w 306 305 288 0.321345
w 306 305 -288 0.0302898
w 306 -305 288 0.693741
w 306 -305 -288 0.45618
w 307 289 0
w 307 -289 1
w 308 307 290 1
w 308 307 -290 0
w 308 -307 290 0
w 308 -307 -290 0
w 309 308 291 0.427059
w 309 308 -291 0.182724
w 309 -308 291 0.213186
w 309 -308 -291 0.757837
w 310 309 292 1
w 310 309 -292 1
w 310 -309 292 0
w 310 -309 -292 0
w 311 310 293 1
w 311 310 -293 0
w 311 -310 293 1
w 311 -310 -293 0
w 312 311 294 0.831009
w 312 311 -294 0.0365583
w 312 -311 294 0.301622
w 312 -311 -294 0.424925
w 313 312 295 1
w 313 312 -295 0
w 313 -312 295 0
w 313 -312 -295 1
w 314 313 296 0.123207
w 314 313 -296 0.229949
w 314 -313 296 0.855339
w 314 -313 -296 0.8776
w 315 314 297 0
w 315 314 -297 0
w 315 -314 297 1
w 315 -314 -297 1
w 316 315 298 0
w 316 315 -298 0
w 316 -315 298 1
w 316 -315 -298 0
w 317 316 299 0.598358
w 317 316 -299 0.014173
w 317 -316 299 0.448043
w 317 -316 -299 0.824234
w 318 317 300 0.377766
w 318 317 -300 0.655243
w 318 -317 300 0.709746
w 318 -317 -300 0.679388
w 319 318 301 0
w 319 318 -301 1
w 319 -318 301 1
w 319 -318 -301 1
w 320 319 302 0.00493942
w 320 319 -302 0.727597
w 320 -319 302 0.732216
w 320 -319 -302 0.88254
w 321 320 303 0.324992
w 321 320 -303 0.187199
w 321 -320 303 0.0900284
w 321 -320 -303 0.130954
w 322 321 304 1
w 322 321 -304 0
w 322 -321 304 0
w 322 -321 -304 1
w 323 322 305 0
w 323 322 -305 0
w 323 -322 305 1
w 323 -322 -305 0
w 324 323 306 1
w 324 323 -306 1
w 324 -323 306 1
w 324 -323 -306 0